clingo version 5.7.2
Reading from ../axioms/dec_clingo.lp ...
Solving...
Answer: 1 (Time: 0.015s)
happens(throw,1) holdsAt(itsWhite,0) holdsAt(itsBlack,0) holdsAt(itsWhite,2) holdsAt(itsBlack,2) holdsAt(itsBlack,1) holdsAt(onBlack,2)
Answer: 2 (Time: 0.016s)
happens(throw,1) holdsAt(itsWhite,0) holdsAt(itsBlack,0) holdsAt(itsWhite,2) holdsAt(itsBlack,2) holdsAt(itsWhite,1) holdsAt(onWhite,2)
Answer: 3 (Time: 0.016s)
happens(throw,1) holdsAt(itsWhite,0) holdsAt(itsBlack,0) holdsAt(itsWhite,2) holdsAt(itsBlack,2) holdsAt(itsWhite,1) holdsAt(itsBlack,1) holdsAt(onBlack,2) holdsAt(onWhite,2)
SATISFIABLE

Models       : 3
Calls        : 1
Time         : 0.017s (Solving: 0.00s 1st Model: 0.00s Unsat: 0.00s)
CPU Time     : 0.005s
